(set-logic BV) (define-fun origCir ((n165 Bool) (n152 Bool) (n116 Bool) (n103 Bool)) Bool (and n165 (and n152 (and n116 n103)))) (synth-fun skel ((n165 Bool) (n152 Bool) (n116 Bool) (n103 Bool)) Bool) (declare-var n165 Bool) (declare-var n152 Bool) (declare-var n116 Bool) (declare-var n103 Bool) (constraint (= (origCir n165 n152 n116 n103) (skel n165 n152 n116 n103))) (check-synth)
